c nIsolatedPIs 160
c maxPI 96
p cnf 332 709
c gate 97 40 88 0
40 -97 0
88 -97 0
-40 -88 97 0
c gate 98 -40 -88 0
-40 -98 0
-88 -98 0
40 88 98 0
c gate 99 39 87 0
39 -99 0
87 -99 0
-39 -87 99 0
c gate 100 -98 99 0
-98 -100 0
99 -100 0
98 -99 100 0
c gate 101 -97 -100 0
-97 -101 0
-100 -101 0
97 100 101 0
c gate 102 38 86 0
38 -102 0
86 -102 0
-38 -86 102 0
c gate 103 37 85 0
37 -103 0
85 -103 0
-37 -85 103 0
c gate 104 -102 -103 0
-102 -104 0
-103 -104 0
102 103 104 0
c gate 105 -38 -86 0
-38 -105 0
-86 -105 0
38 86 105 0
c gate 106 -39 -87 0
-39 -106 0
-87 -106 0
39 87 106 0
c gate 107 -98 -106 0
-98 -107 0
-106 -107 0
98 106 107 0
c gate 108 -105 107 0
-105 -108 0
107 -108 0
105 -107 108 0
c gate 109 101 108 0
101 -109 0
108 -109 0
-101 -108 109 0
c gate 110 -104 109 0
-104 -110 0
109 -110 0
104 -109 110 0
c gate 111 101 -110 0
101 -111 0
-110 -111 0
-101 110 111 0
c gate 112 -37 -85 0
-37 -112 0
-85 -112 0
37 85 112 0
c gate 113 104 -112 0
104 -113 0
-112 -113 0
-104 112 113 0
c gate 114 109 113 0
109 -114 0
113 -114 0
-109 -113 114 0
c gate 115 36 84 0
36 -115 0
84 -115 0
-36 -84 115 0
c gate 116 -36 -84 0
-36 -116 0
-84 -116 0
36 84 116 0
c gate 117 35 83 0
35 -117 0
83 -117 0
-35 -83 117 0
c gate 118 -116 117 0
-116 -118 0
117 -118 0
116 -117 118 0
c gate 119 -115 -118 0
-115 -119 0
-118 -119 0
115 118 119 0
c gate 120 -35 -83 0
-35 -120 0
-83 -120 0
35 83 120 0
c gate 121 -116 -120 0
-116 -121 0
-120 -121 0
116 120 121 0
c gate 122 119 121 0
119 -122 0
121 -122 0
-119 -121 122 0
c gate 123 33 81 0
33 -123 0
81 -123 0
-33 -81 123 0
c gate 124 34 82 0
34 -124 0
82 -124 0
-34 -82 124 0
c gate 125 -123 -124 0
-123 -125 0
-124 -125 0
123 124 125 0
c gate 126 -34 -82 0
-34 -126 0
-82 -126 0
34 82 126 0
c gate 127 -125 -126 0
-125 -127 0
-126 -127 0
125 126 127 0
c gate 128 122 127 0
122 -128 0
127 -128 0
-122 -127 128 0
c gate 129 119 -128 0
119 -129 0
-128 -129 0
-119 128 129 0
c gate 130 114 -129 0
114 -130 0
-129 -130 0
-114 129 130 0
c gate 131 111 -130 0
111 -131 0
-130 -131 0
-111 130 131 0
c gate 132 -33 -81 0
-33 -132 0
-81 -132 0
33 81 132 0
c gate 133 -126 -132 0
-126 -133 0
-132 -133 0
126 132 133 0
c gate 134 125 133 0
125 -134 0
133 -134 0
-125 -133 134 0
c gate 135 122 134 0
122 -135 0
134 -135 0
-122 -134 135 0
c gate 136 114 135 0
114 -136 0
135 -136 0
-114 -135 136 0
c gate 137 2 50 0
2 -137 0
50 -137 0
-2 -50 137 0
c gate 138 1 49 0
1 -138 0
49 -138 0
-1 -49 138 0
c gate 139 -137 -138 0
-137 -139 0
-138 -139 0
137 138 139 0
c gate 140 -3 -51 0
-3 -140 0
-51 -140 0
3 51 140 0
c gate 141 -2 -50 0
-2 -141 0
-50 -141 0
2 50 141 0
c gate 142 -140 -141 0
-140 -142 0
-141 -142 0
140 141 142 0
c gate 143 -139 142 0
-139 -143 0
142 -143 0
139 -142 143 0
c gate 144 4 52 0
4 -144 0
52 -144 0
-4 -52 144 0
c gate 145 3 51 0
3 -145 0
51 -145 0
-3 -51 145 0
c gate 146 -144 -145 0
-144 -146 0
-145 -146 0
144 145 146 0
c gate 147 -143 146 0
-143 -147 0
146 -147 0
143 -146 147 0
c gate 148 -4 -52 0
-4 -148 0
-52 -148 0
4 52 148 0
c gate 149 -5 -53 0
-5 -149 0
-53 -149 0
5 53 149 0
c gate 150 -148 -149 0
-148 -150 0
-149 -150 0
148 149 150 0
c gate 151 -147 150 0
-147 -151 0
150 -151 0
147 -150 151 0
c gate 152 6 54 0
6 -152 0
54 -152 0
-6 -54 152 0
c gate 153 5 53 0
5 -153 0
53 -153 0
-5 -53 153 0
c gate 154 -152 -153 0
-152 -154 0
-153 -154 0
152 153 154 0
c gate 155 -151 154 0
-151 -155 0
154 -155 0
151 -154 155 0
c gate 156 -7 -55 0
-7 -156 0
-55 -156 0
7 55 156 0
c gate 157 -6 -54 0
-6 -157 0
-54 -157 0
6 54 157 0
c gate 158 -156 -157 0
-156 -158 0
-157 -158 0
156 157 158 0
c gate 159 -155 158 0
-155 -159 0
158 -159 0
155 -158 159 0
c gate 160 8 56 0
8 -160 0
56 -160 0
-8 -56 160 0
c gate 161 7 55 0
7 -161 0
55 -161 0
-7 -55 161 0
c gate 162 -160 -161 0
-160 -162 0
-161 -162 0
160 161 162 0
c gate 163 -159 162 0
-159 -163 0
162 -163 0
159 -162 163 0
c gate 164 -9 -57 0
-9 -164 0
-57 -164 0
9 57 164 0
c gate 165 -8 -56 0
-8 -165 0
-56 -165 0
8 56 165 0
c gate 166 -164 -165 0
-164 -166 0
-165 -166 0
164 165 166 0
c gate 167 -163 166 0
-163 -167 0
166 -167 0
163 -166 167 0
c gate 168 10 58 0
10 -168 0
58 -168 0
-10 -58 168 0
c gate 169 9 57 0
9 -169 0
57 -169 0
-9 -57 169 0
c gate 170 -168 -169 0
-168 -170 0
-169 -170 0
168 169 170 0
c gate 171 -167 170 0
-167 -171 0
170 -171 0
167 -170 171 0
c gate 172 -10 -58 0
-10 -172 0
-58 -172 0
10 58 172 0
c gate 173 -12 -60 0
-12 -173 0
-60 -173 0
12 60 173 0
c gate 174 -11 -59 0
-11 -174 0
-59 -174 0
11 59 174 0
c gate 175 -173 -174 0
-173 -175 0
-174 -175 0
173 174 175 0
c gate 176 -172 175 0
-172 -176 0
175 -176 0
172 -175 176 0
c gate 177 -171 176 0
-171 -177 0
176 -177 0
171 -176 177 0
c gate 178 12 60 0
12 -178 0
60 -178 0
-12 -60 178 0
c gate 179 11 59 0
11 -179 0
59 -179 0
-11 -59 179 0
c gate 180 -173 179 0
-173 -180 0
179 -180 0
173 -179 180 0
c gate 181 -178 -180 0
-178 -181 0
-180 -181 0
178 180 181 0
c gate 182 -177 181 0
-177 -182 0
181 -182 0
177 -181 182 0
c gate 183 -14 -62 0
-14 -183 0
-62 -183 0
14 62 183 0
c gate 184 -15 -63 0
-15 -184 0
-63 -184 0
15 63 184 0
c gate 185 -183 -184 0
-183 -185 0
-184 -185 0
183 184 185 0
c gate 186 14 62 0
14 -186 0
62 -186 0
-14 -62 186 0
c gate 187 13 61 0
13 -187 0
61 -187 0
-13 -61 187 0
c gate 188 -186 -187 0
-186 -188 0
-187 -188 0
186 187 188 0
c gate 189 -13 -61 0
-13 -189 0
-61 -189 0
13 61 189 0
c gate 190 188 -189 0
188 -190 0
-189 -190 0
-188 189 190 0
c gate 191 185 190 0
185 -191 0
190 -191 0
-185 -190 191 0
c gate 192 -182 191 0
-182 -192 0
191 -192 0
182 -191 192 0
c gate 193 185 -188 0
185 -193 0
-188 -193 0
-185 188 193 0
c gate 194 15 63 0
15 -194 0
63 -194 0
-15 -63 194 0
c gate 195 16 64 0
16 -195 0
64 -195 0
-16 -64 195 0
c gate 196 -194 -195 0
-194 -196 0
-195 -196 0
194 195 196 0
c gate 197 -193 196 0
-193 -197 0
196 -197 0
193 -196 197 0
c gate 198 -192 197 0
-192 -198 0
197 -198 0
192 -197 198 0
c gate 199 -20 -68 0
-20 -199 0
-68 -199 0
20 68 199 0
c gate 200 19 -199 0
19 -200 0
-199 -200 0
-19 199 200 0
c gate 201 67 -199 0
67 -201 0
-199 -201 0
-67 199 201 0
c gate 202 -200 -201 0
-200 -202 0
-201 -202 0
200 201 202 0
c gate 203 28 76 0
28 -203 0
76 -203 0
-28 -76 203 0
c gate 204 -28 -76 0
-28 -204 0
-76 -204 0
28 76 204 0
c gate 205 27 75 0
27 -205 0
75 -205 0
-27 -75 205 0
c gate 206 -204 205 0
-204 -206 0
205 -206 0
204 -205 206 0
c gate 207 -203 -206 0
-203 -207 0
-206 -207 0
203 206 207 0
c gate 208 -27 -75 0
-27 -208 0
-75 -208 0
27 75 208 0
c gate 209 -26 -74 0
-26 -209 0
-74 -209 0
26 74 209 0
c gate 210 -204 -209 0
-204 -210 0
-209 -210 0
204 209 210 0
c gate 211 -208 210 0
-208 -211 0
210 -211 0
208 -210 211 0
c gate 212 207 211 0
207 -212 0
211 -212 0
-207 -211 212 0
c gate 213 -202 212 0
-202 -213 0
212 -213 0
202 -212 213 0
c gate 214 -23 -71 0
-23 -214 0
-71 -214 0
23 71 214 0
c gate 215 -22 -70 0
-22 -215 0
-70 -215 0
22 70 215 0
c gate 216 -214 -215 0
-214 -216 0
-215 -216 0
214 215 216 0
c gate 217 24 72 0
24 -217 0
72 -217 0
-24 -72 217 0
c gate 218 23 71 0
23 -218 0
71 -218 0
-23 -71 218 0
c gate 219 -217 -218 0
-217 -219 0
-218 -219 0
217 218 219 0
c gate 220 216 219 0
216 -220 0
219 -220 0
-216 -219 220 0
c gate 221 22 70 0
22 -221 0
70 -221 0
-22 -70 221 0
c gate 222 21 69 0
21 -222 0
69 -222 0
-21 -69 222 0
c gate 223 -221 -222 0
-221 -223 0
-222 -223 0
221 222 223 0
c gate 224 -25 -73 0
-25 -224 0
-73 -224 0
25 73 224 0
c gate 225 -24 -72 0
-24 -225 0
-72 -225 0
24 72 225 0
c gate 226 -224 -225 0
-224 -226 0
-225 -226 0
224 225 226 0
c gate 227 223 226 0
223 -227 0
226 -227 0
-223 -226 227 0
c gate 228 220 227 0
220 -228 0
227 -228 0
-220 -227 228 0
c gate 229 -16 -64 0
-16 -229 0
-64 -229 0
16 64 229 0
c gate 230 -18 -66 0
-18 -230 0
-66 -230 0
18 66 230 0
c gate 231 -229 -230 0
-229 -231 0
-230 -231 0
229 230 231 0
c gate 232 -17 -65 0
-17 -232 0
-65 -232 0
17 65 232 0
c gate 233 -21 -69 0
-21 -233 0
-69 -233 0
21 69 233 0
c gate 234 -232 -233 0
-232 -234 0
-233 -234 0
232 233 234 0
c gate 235 231 234 0
231 -235 0
234 -235 0
-231 -234 235 0
c gate 236 17 65 0
17 -236 0
65 -236 0
-17 -65 236 0
c gate 237 18 66 0
18 -237 0
66 -237 0
-18 -66 237 0
c gate 238 -236 -237 0
-236 -238 0
-237 -238 0
236 237 238 0
c gate 239 25 73 0
25 -239 0
73 -239 0
-25 -73 239 0
c gate 240 26 74 0
26 -240 0
74 -240 0
-26 -74 240 0
c gate 241 -239 -240 0
-239 -241 0
-240 -241 0
239 240 241 0
c gate 242 238 241 0
238 -242 0
241 -242 0
-238 -241 242 0
c gate 243 235 242 0
235 -243 0
242 -243 0
-235 -242 243 0
c gate 244 228 243 0
228 -244 0
243 -244 0
-228 -243 244 0
c gate 245 30 78 0
30 -245 0
78 -245 0
-30 -78 245 0
c gate 246 29 77 0
29 -246 0
77 -246 0
-29 -77 246 0
c gate 247 -245 -246 0
-245 -247 0
-246 -247 0
245 246 247 0
c gate 248 -29 -77 0
-29 -248 0
-77 -248 0
29 77 248 0
c gate 249 -32 -80 0
-32 -249 0
-80 -249 0
32 80 249 0
c gate 250 -248 -249 0
-248 -250 0
-249 -250 0
248 249 250 0
c gate 251 247 250 0
247 -251 0
250 -251 0
-247 -250 251 0
c gate 252 -31 -79 0
-31 -252 0
-79 -252 0
31 79 252 0
c gate 253 -30 -78 0
-30 -253 0
-78 -253 0
30 78 253 0
c gate 254 -252 -253 0
-252 -254 0
-253 -254 0
252 253 254 0
c gate 255 32 80 0
32 -255 0
80 -255 0
-32 -80 255 0
c gate 256 31 79 0
31 -256 0
79 -256 0
-31 -79 256 0
c gate 257 -255 -256 0
-255 -257 0
-256 -257 0
255 256 257 0
c gate 258 254 257 0
254 -258 0
257 -258 0
-254 -257 258 0
c gate 259 251 258 0
251 -259 0
258 -259 0
-251 -258 259 0
c gate 260 20 68 0
20 -260 0
68 -260 0
-20 -68 260 0
c gate 261 67 200 0
67 -261 0
200 -261 0
-67 -200 261 0
c gate 262 -260 -261 0
-260 -262 0
-261 -262 0
260 261 262 0
c gate 263 259 262 0
259 -263 0
262 -263 0
-259 -262 263 0
c gate 264 244 263 0
244 -264 0
263 -264 0
-244 -263 264 0
c gate 265 213 264 0
213 -265 0
264 -265 0
-213 -264 265 0
c gate 266 -198 265 0
-198 -266 0
265 -266 0
198 -265 266 0
c gate 267 -230 -238 0
-230 -267 0
-238 -267 0
230 238 267 0
c gate 268 -202 267 0
-202 -268 0
267 -268 0
202 -267 268 0
c gate 269 262 -268 0
262 -269 0
-268 -269 0
-262 268 269 0
c gate 270 -233 -269 0
-233 -270 0
-269 -270 0
233 269 270 0
c gate 271 223 -270 0
223 -271 0
-270 -271 0
-223 270 271 0
c gate 272 216 -271 0
216 -272 0
-271 -272 0
-216 271 272 0
c gate 273 219 -272 0
219 -273 0
-272 -273 0
-219 272 273 0
c gate 274 226 -273 0
226 -274 0
-273 -274 0
-226 273 274 0
c gate 275 241 -274 0
241 -275 0
-274 -275 0
-241 274 275 0
c gate 276 211 -275 0
211 -276 0
-275 -276 0
-211 275 276 0
c gate 277 207 -276 0
207 -277 0
-276 -277 0
-207 276 277 0
c gate 278 259 -277 0
259 -278 0
-277 -278 0
-259 277 278 0
c gate 279 -247 254 0
-247 -279 0
254 -279 0
247 -254 279 0
c gate 280 257 -279 0
257 -280 0
-279 -280 0
-257 279 280 0
c gate 281 -249 -280 0
-249 -281 0
-280 -281 0
249 280 281 0
c gate 282 -278 -281 0
-278 -282 0
-281 -282 0
278 281 282 0
c gate 283 -266 282 0
-266 -283 0
282 -283 0
266 -282 283 0
c gate 284 136 -283 0
136 -284 0
-283 -284 0
-136 283 284 0
c gate 285 131 -284 0
131 -285 0
-284 -285 0
-131 284 285 0
c gate 286 48 96 0
48 -286 0
96 -286 0
-48 -96 286 0
c gate 287 -48 -96 0
-48 -287 0
-96 -287 0
48 96 287 0
c gate 288 47 95 0
47 -288 0
95 -288 0
-47 -95 288 0
c gate 289 -287 288 0
-287 -289 0
288 -289 0
287 -288 289 0
c gate 290 -286 -289 0
-286 -290 0
-289 -290 0
286 289 290 0
c gate 291 -46 -94 0
-46 -291 0
-94 -291 0
46 94 291 0
c gate 292 -47 -95 0
-47 -292 0
-95 -292 0
47 95 292 0
c gate 293 -287 -292 0
-287 -293 0
-292 -293 0
287 292 293 0
c gate 294 -291 293 0
-291 -294 0
293 -294 0
291 -293 294 0
c gate 295 290 294 0
290 -295 0
294 -295 0
-290 -294 295 0
c gate 296 -45 -93 0
-45 -296 0
-93 -296 0
45 93 296 0
c gate 297 46 94 0
46 -297 0
94 -297 0
-46 -94 297 0
c gate 298 45 93 0
45 -298 0
93 -298 0
-45 -93 298 0
c gate 299 -297 -298 0
-297 -299 0
-298 -299 0
297 298 299 0
c gate 300 -296 299 0
-296 -300 0
299 -300 0
296 -299 300 0
c gate 301 295 300 0
295 -301 0
300 -301 0
-295 -300 301 0
c gate 302 44 92 0
44 -302 0
92 -302 0
-44 -92 302 0
c gate 303 -44 -92 0
-44 -303 0
-92 -303 0
44 92 303 0
c gate 304 43 91 0
43 -304 0
91 -304 0
-43 -91 304 0
c gate 305 -303 304 0
-303 -305 0
304 -305 0
303 -304 305 0
c gate 306 -302 -305 0
-302 -306 0
-305 -306 0
302 305 306 0
c gate 307 -42 -90 0
-42 -307 0
-90 -307 0
42 90 307 0
c gate 308 -43 -91 0
-43 -308 0
-91 -308 0
43 91 308 0
c gate 309 -303 -308 0
-303 -309 0
-308 -309 0
303 308 309 0
c gate 310 -307 309 0
-307 -310 0
309 -310 0
307 -309 310 0
c gate 311 306 310 0
306 -311 0
310 -311 0
-306 -310 311 0
c gate 312 42 90 0
42 -312 0
90 -312 0
-42 -90 312 0
c gate 313 41 89 0
41 -313 0
89 -313 0
-41 -89 313 0
c gate 314 -312 -313 0
-312 -314 0
-313 -314 0
312 313 314 0
c gate 315 -41 -89 0
-41 -315 0
-89 -315 0
41 89 315 0
c gate 316 314 -315 0
314 -316 0
-315 -316 0
-314 315 316 0
c gate 317 311 316 0
311 -317 0
316 -317 0
-311 -316 317 0
c gate 318 301 317 0
301 -318 0
317 -318 0
-301 -317 318 0
c gate 319 -285 318 0
-285 -319 0
318 -319 0
285 -318 319 0
c gate 320 136 -282 0
136 -320 0
-282 -320 0
-136 282 320 0
c gate 321 311 -314 0
311 -321 0
-314 -321 0
-311 314 321 0
c gate 322 306 -321 0
306 -322 0
-321 -322 0
-306 321 322 0
c gate 323 131 322 0
131 -323 0
322 -323 0
-131 -322 323 0
c gate 324 -320 323 0
-320 -324 0
323 -324 0
320 -323 324 0
c gate 325 -111 318 0
-111 -325 0
318 -325 0
111 -318 325 0
c gate 326 301 -322 0
301 -326 0
-322 -326 0
-301 322 326 0
c gate 327 295 -299 0
295 -327 0
-299 -327 0
-295 299 327 0
c gate 328 290 -327 0
290 -328 0
-327 -328 0
-290 327 328 0
c gate 329 -326 328 0
-326 -329 0
328 -329 0
326 -328 329 0
c gate 330 -325 329 0
-325 -330 0
329 -330 0
325 -329 330 0
c gate 331 -324 330 0
-324 -331 0
330 -331 0
324 -330 331 0
c gate 332 319 331 0
319 -332 0
331 -332 0
-319 -331 332 0
c PO
332 0
